! SYNTHETIC DEMONSTRATION FILE - NOT MEASURED DATA
! Four-port row-wise matrix. S13/S31 are the illustrative through paths.
# GHz S MA R 50
0.1  0.05 0  0 0  0.95 0  0 0
     0 0  0.05 0  0 0  0 0
     0.95 0  0 0  0.05 0  0 0
     0 0  0 0  0 0  0.05 0
1.0  0.05 0  0 0  0.80 0  0 0
     0 0  0.05 0  0 0  0 0
     0.80 0  0 0  0.05 0  0 0
     0 0  0 0  0 0  0.05 0
2.5  0.05 0  0 0  0.50 0  0 0
     0 0  0.05 0  0 0  0 0
     0.50 0  0 0  0.05 0  0 0
     0 0  0 0  0 0  0.05 0
5.0  0.05 0  0 0  0.25 0  0 0
     0 0  0.05 0  0 0  0 0
     0.25 0  0 0  0.05 0  0 0
     0 0  0 0  0 0  0.05 0
10.0 0.05 0  0 0  0.10 0  0 0
     0 0  0.05 0  0 0  0 0
     0.10 0  0 0  0.05 0  0 0
     0 0  0 0  0 0  0.05 0
